NAME          DCAP_2_4_3_200_SS83
ROWS
 N  OBJ
 L  CON1
 L  CON2
 L  CON3
 L  CON4
 L  CON5
 L  CON6
 L  CON7
 L  CON8
 L  CON9
 L  CON10
 L  CON11
 L  CON12
 E  CON13
 E  CON14
 E  CON15
 E  CON16
 E  CON17
 E  CON18
 E  CON19
 E  CON20
 E  CON21
 E  CON22
 E  CON23
 E  CON24
COLUMNS
    x[1,1]    OBJ       6.180167      CON1      1.000000    
    x[1,1]    CON7      -1.000000     CON8      -1.000000   
    x[1,1]    CON9      -1.000000   
    x[1,2]    OBJ       6.563535      CON2      1.000000    
    x[1,2]    CON8      -1.000000     CON9      -1.000000   
    x[1,3]    OBJ       7.443064      CON3      1.000000    
    x[1,3]    CON9      -1.000000   
    x[2,1]    OBJ       6.732585      CON4      1.000000    
    x[2,1]    CON10     -1.000000     CON11     -1.000000   
    x[2,1]    CON12     -1.000000   
    x[2,2]    OBJ       5.039546      CON5      1.000000    
    x[2,2]    CON11     -1.000000     CON12     -1.000000   
    x[2,3]    OBJ       6.054841      CON6      1.000000    
    x[2,3]    CON12     -1.000000   
    MARKER    'MARKER'                'INTORG'
    u[1,1]    OBJ       48.076654     CON1      -1.000000   
    u[1,2]    OBJ       20.066487     CON2      -1.000000   
    u[1,3]    OBJ       32.230043     CON3      -1.000000   
    u[2,1]    OBJ       49.996186     CON4      -1.000000   
    u[2,2]    OBJ       49.466655     CON5      -1.000000   
    u[2,3]    OBJ       27.484319     CON6      -1.000000   
    y[1,1,1]  OBJ       5.249292      CON7      0.690131    
    y[1,1,1]  CON13     1.000000    
    y[1,1,2]  OBJ       8.466137      CON8      1.133828    
    y[1,1,2]  CON14     1.000000    
    y[1,1,3]  OBJ       9.439422      CON9      1.164224    
    y[1,1,3]  CON15     1.000000    
    y[1,2,1]  OBJ       6.963803      CON7      0.586095    
    y[1,2,1]  CON16     1.000000    
    y[1,2,2]  OBJ       5.463939      CON8      0.877734    
    y[1,2,2]  CON17     1.000000    
    y[1,2,3]  OBJ       8.666467      CON9      0.805606    
    y[1,2,3]  CON18     1.000000    
    y[1,3,1]  OBJ       9.154806      CON7      1.264755    
    y[1,3,1]  CON19     1.000000    
    y[1,3,2]  OBJ       7.917511      CON8      1.414034    
    y[1,3,2]  CON20     1.000000    
    y[1,3,3]  OBJ       7.147768      CON9      0.953088    
    y[1,3,3]  CON21     1.000000    
    y[1,4,1]  OBJ       5.047538      CON7      1.404617    
    y[1,4,1]  CON22     1.000000    
    y[1,4,2]  OBJ       6.142281      CON8      0.810010    
    y[1,4,2]  CON23     1.000000    
    y[1,4,3]  OBJ       8.192648      CON9      1.499218    
    y[1,4,3]  CON24     1.000000    
    y[2,1,1]  OBJ       8.134973      CON10     0.690131    
    y[2,1,1]  CON13     1.000000    
    y[2,1,2]  OBJ       5.291536      CON11     1.133828    
    y[2,1,2]  CON14     1.000000    
    y[2,1,3]  OBJ       7.334594      CON12     1.164224    
    y[2,1,3]  CON15     1.000000    
    y[2,2,1]  OBJ       8.106438      CON10     0.586095    
    y[2,2,1]  CON16     1.000000    
    y[2,2,2]  OBJ       7.523111      CON11     0.877734    
    y[2,2,2]  CON17     1.000000    
    y[2,2,3]  OBJ       7.475166      CON12     0.805606    
    y[2,2,3]  CON18     1.000000    
    y[2,3,1]  OBJ       9.958514      CON10     1.264755    
    y[2,3,1]  CON19     1.000000    
    y[2,3,2]  OBJ       9.945292      CON11     1.414034    
    y[2,3,2]  CON20     1.000000    
    y[2,3,3]  OBJ       8.501357      CON12     0.953088    
    y[2,3,3]  CON21     1.000000    
    y[2,4,1]  OBJ       5.105478      CON10     1.404617    
    y[2,4,1]  CON22     1.000000    
    y[2,4,2]  OBJ       9.533243      CON11     0.810010    
    y[2,4,2]  CON23     1.000000    
    y[2,4,3]  OBJ       9.062024      CON12     1.499218    
    y[2,4,3]  CON24     1.000000    
    z[1,1]    OBJ       629.248899    CON13     1.000000    
    z[1,2]    OBJ       836.371166    CON14     1.000000    
    z[1,3]    OBJ       793.407650    CON15     1.000000    
    z[2,1]    OBJ       569.698079    CON16     1.000000    
    z[2,2]    OBJ       629.499003    CON17     1.000000    
    z[2,3]    OBJ       570.840384    CON18     1.000000    
    z[3,1]    OBJ       970.316937    CON19     1.000000    
    z[3,2]    OBJ       545.247648    CON20     1.000000    
    z[3,3]    OBJ       611.403903    CON21     1.000000    
    z[4,1]    OBJ       709.346473    CON22     1.000000    
    z[4,2]    OBJ       698.848470    CON23     1.000000    
    z[4,3]    OBJ       877.792183    CON24     1.000000    
    MARKER    'MARKER'                 'INTEND'
RHS
    RHS       CON1      -0.000000     CON2      -0.000000   
    RHS       CON3      -0.000000     CON4      -0.000000   
    RHS       CON5      -0.000000     CON6      -0.000000   
    RHS       CON7      -0.000000     CON8      -0.000000   
    RHS       CON9      -0.000000     CON10     -0.000000   
    RHS       CON11     -0.000000     CON12     -0.000000   
    RHS       CON13     1.000000      CON14     1.000000    
    RHS       CON15     1.000000      CON16     1.000000    
    RHS       CON17     1.000000      CON18     1.000000    
    RHS       CON19     1.000000      CON20     1.000000    
    RHS       CON21     1.000000      CON22     1.000000    
    RHS       CON23     1.000000      CON24     1.000000    
BOUNDS
 BV BOUND     u[1,1]  
 BV BOUND     u[1,2]  
 BV BOUND     u[1,3]  
 BV BOUND     u[2,1]  
 BV BOUND     u[2,2]  
 BV BOUND     u[2,3]  
 BV BOUND     y[1,1,1]
 BV BOUND     y[1,1,2]
 BV BOUND     y[1,1,3]
 BV BOUND     y[1,2,1]
 BV BOUND     y[1,2,2]
 BV BOUND     y[1,2,3]
 BV BOUND     y[1,3,1]
 BV BOUND     y[1,3,2]
 BV BOUND     y[1,3,3]
 BV BOUND     y[1,4,1]
 BV BOUND     y[1,4,2]
 BV BOUND     y[1,4,3]
 BV BOUND     y[2,1,1]
 BV BOUND     y[2,1,2]
 BV BOUND     y[2,1,3]
 BV BOUND     y[2,2,1]
 BV BOUND     y[2,2,2]
 BV BOUND     y[2,2,3]
 BV BOUND     y[2,3,1]
 BV BOUND     y[2,3,2]
 BV BOUND     y[2,3,3]
 BV BOUND     y[2,4,1]
 BV BOUND     y[2,4,2]
 BV BOUND     y[2,4,3]
 BV BOUND     z[1,1]  
 BV BOUND     z[1,2]  
 BV BOUND     z[1,3]  
 BV BOUND     z[2,1]  
 BV BOUND     z[2,2]  
 BV BOUND     z[2,3]  
 BV BOUND     z[3,1]  
 BV BOUND     z[3,2]  
 BV BOUND     z[3,3]  
 BV BOUND     z[4,1]  
 BV BOUND     z[4,2]  
 BV BOUND     z[4,3]  
ENDATA
